Route #1: 1 20 16 15 52 56 6 25 1
Route #2: 1 8 31 47 42 55 9 22 28 39 18 10 4 1
Route #3: 1 2 53 63 27 32 41 1
Route #4: 1 33 38 13 11 19 62 48 5 1
Route #5: 1 51 61 37 49 36 60 23 1
Route #6: 1 34 30 12 29 57 14 17 1
Route #7: 1 44 50 35 1
Route #8: 1 26 24 58 43 64 3 21 1
Route #9: 1 46 45 59 54 7 40 1
cost 1021
